NAME: tsp20_4
COMMENT: 20-tsp problem (Padberg/Rinaldi)
TYPE: TSP
DIMENSION: 20
EDGE_WEIGHT_TYPE : EUC_2D
NODE_COORD_SECTION
1 39 5
2 37 9
3 26 36
4 4 11
5 21 24
6 20 18
7 7 26
8 1 30
9 10 11
10 15 40
11 2 29
12 22 28
13 21 24
14 6 0
15 11 25
16 14 6
17 3 19
18 25 19
19 33 20
20 37 33
